(set-logic QF_SLIA)
(declare-fun var0 () String)
(assert (str.in_re var0 (re.++ ((_ re.loop 13 164) (re.++ (re.union (str.to_re "PO`") (re.union (str.to_re "`H?") (re.union (str.to_re "lfo") (str.to_re "b")))) (re.++ (re.union (str.to_re "1") (re.union (str.to_re "R") (re.union (str.to_re "K") (str.to_re "N\\")))) (re.++ (re.union (str.to_re "v_") (re.union (str.to_re "/`") (re.union (str.to_re "L\u0022_") (str.to_re "@b")))) (re.union (str.to_re "Dt") (re.union (str.to_re "C") (re.union (str.to_re "m9") (str.to_re ";3")))))))) (re.++ ((_ re.loop 12 453) (re.++ (re.union (str.to_re "|M") (re.union (str.to_re "0") (re.union (str.to_re "jOT") (str.to_re "SF")))) (re.++ (re.union (str.to_re "`") (re.union (str.to_re "[") (re.union (str.to_re ";X") (str.to_re "x")))) (re.++ (re.union (str.to_re "f") (re.union (str.to_re ",{") (re.union (str.to_re "T") (str.to_re ")!(")))) (re.union (str.to_re "M=") (re.union (str.to_re "D?") (re.union (str.to_re "a.A") (str.to_re "s")))))))) (re.++ ((_ re.loop 2 109) (re.++ (re.union (str.to_re "p{") (re.union (str.to_re "<*p") (re.union (str.to_re "[") (str.to_re ".w")))) (re.++ (re.union (str.to_re "e8") (re.union (str.to_re ":P") (re.union (str.to_re ":") (str.to_re "{[>")))) (re.++ (re.union (str.to_re "/<") (re.union (str.to_re "NP") (re.union (str.to_re "H") (str.to_re "pCw")))) (re.union (str.to_re "hoK") (re.union (str.to_re "#") (re.union (str.to_re "wp") (str.to_re "]$")))))))) ((_ re.loop 9 482) (re.++ (re.union (str.to_re "O:") (re.union (str.to_re "l") (re.union (str.to_re ")Ex") (str.to_re "8GI")))) (re.++ (re.union (str.to_re "bW~") (re.union (str.to_re "J@") (re.union (str.to_re "YVT") (str.to_re "L")))) (re.++ (re.union (str.to_re "d") (re.union (str.to_re "|pT") (re.union (str.to_re "00") (str.to_re "+w")))) (re.union (str.to_re "H/") (re.union (str.to_re "\\8") (re.union (str.to_re "XI?") (str.to_re "eAW")))))))))))))
(assert (not (str.in_re var0 (re.++ ((_ re.loop 10 720) (re.++ (re.union (str.to_re "e|") (re.union (str.to_re "`E") (re.union (str.to_re "In") (str.to_re "&Dq")))) (re.++ (re.union (str.to_re "Q") (re.union (str.to_re "K") (re.union (str.to_re "W") (str.to_re "N")))) (re.++ (re.union (str.to_re "~a") (re.union (str.to_re "-$}") (re.union (str.to_re "-F") (str.to_re "pdl")))) (re.union (str.to_re "=") (re.union (str.to_re "e") (re.union (str.to_re "uR") (str.to_re "XwZ")))))))) (re.++ ((_ re.loop 7 659) (re.++ (re.union (str.to_re "7") (re.union (str.to_re "`3") (re.union (str.to_re "F/E") (str.to_re "/")))) (re.++ (re.union (str.to_re "vRB") (re.union (str.to_re "G0G") (re.union (str.to_re ",") (str.to_re "K*")))) (re.++ (re.union (str.to_re "k<") (re.union (str.to_re "<?") (re.union (str.to_re "_%\\") (str.to_re "vq")))) (re.union (str.to_re "@u\\") (re.union (str.to_re "T") (re.union (str.to_re "Q") (str.to_re "^")))))))) (re.++ ((_ re.loop 5 922) (re.++ (re.union (str.to_re "BtZ") (re.union (str.to_re "3|") (re.union (str.to_re "6J") (str.to_re "!")))) (re.++ (re.union (str.to_re "3x") (re.union (str.to_re "g") (re.union (str.to_re "G") (str.to_re "2`")))) (re.++ (re.union (str.to_re "pi") (re.union (str.to_re "(") (re.union (str.to_re ";") (str.to_re "h}}")))) (re.union (str.to_re "Py\u0022") (re.union (str.to_re "_") (re.union (str.to_re "$") (str.to_re "L")))))))) ((_ re.loop 4 930) (re.++ (re.union (str.to_re ":7") (re.union (str.to_re "6s2") (re.union (str.to_re "6+)") (str.to_re "X?")))) (re.++ (re.union (str.to_re "Z") (re.union (str.to_re "qr@") (re.union (str.to_re "7NS") (str.to_re "TG")))) (re.++ (re.union (str.to_re "_-") (re.union (str.to_re "^)a") (re.union (str.to_re "17%") (str.to_re "C:")))) (re.union (str.to_re "B") (re.union (str.to_re "I") (re.union (str.to_re "e") (str.to_re "]W"))))))))))))))
(assert (not (str.in_re var0 (re.++ (re.* re.allchar) (re.++ (re.union (str.to_re "<") (re.union (str.to_re ">") (re.union (str.to_re "'") (re.union (str.to_re "\u0022") (str.to_re "&"))))) (re.* re.allchar))))))
(assert (<= 50 (str.len var0)))
(check-sat)
(get-model)
